letting n =  10
letting blocks =  [[1, 1], [1, 2], [1, 6], [1, 7], [1, 10], [2, 3], [2, 5], [3, 2], [3, 6], [4, 3], [4, 4], [4, 6], [5, 1], [5, 3], [5, 4], [5, 6], [6, 10], [7, 9], [8, 1], [8, 4], [9, 7], [9, 8], [9, 9], [9, 10], [10, 7], [10, 9]]
